(set-logic QF_SLAH)

(declare-datatypes ((data_t 0)) (((c_data_t (sz Int)))))

(declare-heap (Int data_t))

(define-fun hck ((?x Int) (?y Int) (?v Int)) Bool
	(and
		(>= (- ?y ?x) 2) (<= (- ?y ?x) ?v)
		(sep (pto ?x (c_data_t (- ?y ?x))) (blk (+ ?x 1) ?y))
))

(define-fun-rec hls ((?x Int) (?y Int) (?v Int)) Bool
	(or
		(and (= ?x ?y) (_ emp Int data_t))
		(exists ((?w Int)) (sep (hck ?x ?w ?v) (hls ?w ?y ?v)))
))

(declare-const x0 Int)
(declare-const x1 Int)
(declare-const x2 Int)
(declare-const x3 Int)
(declare-const x4 Int)
(declare-const x5 Int)
(declare-const x6 Int)
(declare-const x7 Int)
(declare-const x8 Int)
(declare-const x9 Int)
(declare-const v8 Int)
(declare-const x10 Int)
(declare-const x11 Int)
(declare-const x12 Int)
(declare-const x13 Int)
(declare-const x14 Int)
(declare-const x15 Int)
(declare-const v14 Int)
(declare-const x16 Int)
(declare-const x17 Int)
(declare-const x18 Int)
(declare-const x19 Int)
(declare-const x20 Int)
(declare-const x21 Int)
(declare-const x22 Int)
(declare-const x23 Int)
(declare-const v22 Int)
(declare-const x24 Int)
(declare-const x25 Int)
(declare-const v24 Int)
(declare-const x26 Int)
(declare-const x27 Int)
(declare-const v26 Int)
(declare-const x28 Int)
(declare-const x29 Int)
(declare-const v28 Int)
(declare-const x30 Int)
(declare-const x31 Int)
(declare-const x32 Int)
(declare-const x33 Int)
(declare-const x34 Int)
(declare-const x35 Int)
(declare-const x36 Int)
(declare-const x37 Int)
(declare-const v36 Int)
(declare-const x38 Int)
(declare-const x39 Int)
(declare-const x40 Int)
(declare-const x41 Int)
(declare-const v40 Int)
(declare-const x42 Int)
(declare-const x43 Int)
(declare-const v42 Int)
(declare-const x44 Int)
(declare-const x45 Int)
(declare-const x46 Int)
(declare-const x47 Int)
(declare-const x48 Int)
(declare-const x49 Int)
(declare-const x50 Int)
(declare-const x51 Int)
(declare-const x52 Int)
(declare-const x53 Int)
(declare-const x54 Int)
(declare-const x55 Int)
(declare-const v54 Int)
(declare-const x56 Int)
(declare-const x57 Int)
(declare-const x58 Int)
(declare-const x59 Int)
(declare-const x60 Int)
(declare-const x61 Int)
(declare-const x62 Int)
(declare-const x63 Int)
(declare-const v62 Int)
(declare-const x64 Int)
(declare-const x65 Int)
(declare-const v64 Int)
(declare-const x66 Int)
(declare-const x67 Int)
(declare-const x68 Int)
(declare-const x69 Int)
(declare-const v68 Int)
(declare-const x70 Int)
(declare-const x71 Int)
(declare-const x72 Int)
(declare-const x73 Int)
(declare-const x74 Int)
(declare-const x75 Int)
(declare-const x76 Int)
(declare-const x77 Int)
(declare-const x78 Int)
(declare-const x79 Int)
(declare-const x80 Int)
(declare-const x81 Int)
(declare-const x82 Int)
(declare-const x83 Int)
(declare-const x84 Int)
(declare-const x85 Int)
(declare-const x86 Int)
(declare-const x87 Int)
(declare-const v86 Int)
(declare-const x88 Int)
(declare-const x89 Int)
(declare-const v88 Int)
(declare-const x90 Int)
(declare-const x91 Int)
(declare-const x92 Int)
(declare-const x93 Int)
(declare-const x94 Int)
(declare-const x95 Int)
(declare-const v94 Int)
(declare-const x96 Int)
(declare-const x97 Int)
(declare-const x98 Int)
(declare-const x99 Int)
(declare-const x100 Int)
(declare-const x101 Int)
(declare-const x102 Int)
(declare-const x103 Int)
(declare-const x104 Int)
(declare-const x105 Int)
(declare-const x106 Int)
(declare-const x107 Int)
(declare-const v106 Int)
(declare-const x108 Int)
(declare-const x109 Int)
(declare-const x110 Int)
(declare-const x111 Int)
(declare-const v110 Int)
(declare-const x112 Int)
(declare-const x113 Int)
(declare-const x114 Int)
(declare-const x115 Int)
(declare-const x116 Int)
(declare-const x117 Int)
(declare-const v116 Int)
(declare-const x118 Int)
(declare-const x119 Int)
(declare-const x120 Int)
(declare-const x121 Int)
(declare-const x122 Int)
(declare-const x123 Int)
(declare-const x124 Int)
(declare-const x125 Int)
(declare-const x126 Int)
(declare-const x127 Int)
(declare-const v126 Int)
(declare-const x128 Int)
(declare-const x129 Int)
(declare-const x130 Int)
(declare-const x131 Int)
(declare-const x132 Int)
(declare-const x133 Int)
(declare-const v132 Int)
(declare-const x134 Int)
(declare-const x135 Int)
(declare-const x136 Int)
(declare-const x137 Int)
(declare-const x138 Int)
(declare-const x139 Int)
(declare-const x140 Int)
(declare-const x141 Int)
(declare-const x142 Int)
(declare-const x143 Int)
(declare-const x144 Int)
(declare-const x145 Int)
(declare-const v144 Int)
(declare-const x146 Int)
(declare-const x147 Int)
(declare-const v146 Int)
(declare-const x148 Int)
(declare-const x149 Int)
(declare-const x150 Int)
(declare-const x151 Int)
(declare-const v150 Int)
(declare-const x152 Int)
(declare-const x153 Int)
(declare-const x154 Int)
(declare-const x155 Int)
(declare-const v154 Int)
(declare-const x156 Int)
(declare-const x157 Int)
(declare-const x158 Int)
(declare-const x159 Int)

(assert(and
(distinct x100 x3) (distinct x89 x64) (= x158 x51) (distinct x73 x110) (= x59 x49) (= x152 x156) (distinct x4 x56) (= x52 x72) (= x69 x153) (= x50 x103) (= x140 x58) (< x87 x99) (= x110 x154) (distinct x38 x86) 
(sep
(pto x0 (c_data_t x1))
(blk x2 x3)
(blk x4 x5)
(pto x6 (c_data_t x7))
(hls x8 x9 v8)
(blk x10 x11)
(pto x12 (c_data_t x13))
(hls x14 x15 v14)
(blk x16 x17)
(blk x18 x19)
(pto x20 (c_data_t x21))
(hls x22 x23 v22)
(hls x24 x25 v24)
(hls x26 x27 v26)
(hls x28 x29 v28)
(pto x30 (c_data_t x31))
(blk x32 x33)
(blk x34 x35)
(hls x36 x37 v36)
(blk x38 x39)
(hls x40 x41 v40)
(hls x42 x43 v42)
(blk x44 x45)
(pto x46 (c_data_t x47))
(pto x48 (c_data_t x49))
(pto x50 (c_data_t x51))
(pto x52 (c_data_t x53))
(hls x54 x55 v54)
(pto x56 (c_data_t x57))
(pto x58 (c_data_t x59))
(pto x60 (c_data_t x61))
(hls x62 x63 v62)
(hls x64 x65 v64)
(pto x66 (c_data_t x67))
(hls x68 x69 v68)
(pto x70 (c_data_t x71))
(pto x72 (c_data_t x73))
(pto x74 (c_data_t x75))
(blk x76 x77)
(pto x78 (c_data_t x79))
(pto x80 (c_data_t x81))
(blk x82 x83)
(pto x84 (c_data_t x85))
(hls x86 x87 v86)
(hls x88 x89 v88)
(pto x90 (c_data_t x91))
(blk x92 x93)
(hls x94 x95 v94)
(pto x96 (c_data_t x97))
(pto x98 (c_data_t x99))
(blk x100 x101)
(pto x102 (c_data_t x103))
(pto x104 (c_data_t x105))
(hls x106 x107 v106)
(pto x108 (c_data_t x109))
(hls x110 x111 v110)
(blk x112 x113)
(pto x114 (c_data_t x115))
(hls x116 x117 v116)
(pto x118 (c_data_t x119))
(pto x120 (c_data_t x121))
(pto x122 (c_data_t x123))
(pto x124 (c_data_t x125))
(hls x126 x127 v126)
(blk x128 x129)
(blk x130 x131)
(hls x132 x133 v132)
(pto x134 (c_data_t x135))
(pto x136 (c_data_t x137))
(pto x138 (c_data_t x139))
(blk x140 x141)
(pto x142 (c_data_t x143))
(hls x144 x145 v144)
(hls x146 x147 v146)
(blk x148 x149)
(hls x150 x151 v150)
(pto x152 (c_data_t x153))
(hls x154 x155 v154)
(pto x156 (c_data_t x157))
(pto x158 (c_data_t x159))
)))

(check-sat)